
Gurobi 12.0.1 (linux64, C++) logging started Wed Mar 19 22:54:02 2025

Set parameter WLSAccessID
Set parameter WLSSecret
Set parameter LicenseID to value 2623509
Set parameter LogFile to value "gurobi_improved.log"
Academic license 2623509 - for non-commercial use only - registered to ky___@gmail.com
Set parameter OutputFlag to value 1
Gurobi Optimizer version 12.0.1 build v12.0.1rc0 (linux64 - "Ubuntu 20.04.6 LTS")

CPU model: AMD Ryzen 5 PRO 5675U with Radeon Graphics, instruction set [SSE2|AVX|AVX2]
Thread count: 6 physical cores, 12 logical processors, using up to 12 threads

Academic license 2623509 - for non-commercial use only - registered to ky___@gmail.com
Optimize a model with 100 rows, 625 columns and 2025 nonzeros
Model fingerprint: 0x7085b396
Variable types: 0 continuous, 625 integer (625 binary)
Coefficient statistics:
  Matrix range     [1e+00, 4e+02]
  Objective range  [0e+00, 0e+00]
  Bounds range     [1e+00, 1e+00]
  RHS range        [1e+00, 1e+03]
Found heuristic solution: objective 0.0000000

Explored 0 nodes (0 simplex iterations) in 0.01 seconds (0.00 work units)
Thread count was 1 (of 12 available processors)

Solution count 1: 0 

Optimal solution found (tolerance 1.00e-04)
Best objective 0.000000000000e+00, best bound 0.000000000000e+00, gap 0.0000%

Gurobi 12.0.1 (linux64, C++) logging started Wed Mar 19 22:54:02 2025

Set parameter WLSAccessID
Set parameter WLSSecret
Set parameter LicenseID to value 2623509
Set parameter LogFile to value "gurobi_improved.log"
Academic license 2623509 - for non-commercial use only - registered to ky___@gmail.com
Set parameter OutputFlag to value 1
Gurobi Optimizer version 12.0.1 build v12.0.1rc0 (linux64 - "Ubuntu 20.04.6 LTS")

CPU model: AMD Ryzen 5 PRO 5675U with Radeon Graphics, instruction set [SSE2|AVX|AVX2]
Thread count: 6 physical cores, 12 logical processors, using up to 12 threads

Academic license 2623509 - for non-commercial use only - registered to ky___@gmail.com
Optimize a model with 100 rows, 625 columns and 2025 nonzeros
Model fingerprint: 0x7085b396
Variable types: 0 continuous, 625 integer (625 binary)
Coefficient statistics:
  Matrix range     [1e+00, 4e+02]
  Objective range  [0e+00, 0e+00]
  Bounds range     [1e+00, 1e+00]
  RHS range        [1e+00, 1e+03]
Found heuristic solution: objective 0.0000000

Explored 0 nodes (0 simplex iterations) in 0.00 seconds (0.00 work units)
Thread count was 1 (of 12 available processors)

Solution count 1: 0 

Optimal solution found (tolerance 1.00e-04)
Best objective 0.000000000000e+00, best bound 0.000000000000e+00, gap 0.0000%

Gurobi 12.0.1 (linux64, C++) logging started Wed Mar 19 22:54:02 2025

Set parameter WLSAccessID
Set parameter WLSSecret
Set parameter LicenseID to value 2623509
Set parameter LogFile to value "gurobi_improved.log"
Academic license 2623509 - for non-commercial use only - registered to ky___@gmail.com
Set parameter OutputFlag to value 1
Gurobi Optimizer version 12.0.1 build v12.0.1rc0 (linux64 - "Ubuntu 20.04.6 LTS")

CPU model: AMD Ryzen 5 PRO 5675U with Radeon Graphics, instruction set [SSE2|AVX|AVX2]
Thread count: 6 physical cores, 12 logical processors, using up to 12 threads

Academic license 2623509 - for non-commercial use only - registered to ky___@gmail.com
Optimize a model with 100 rows, 625 columns and 2025 nonzeros
Model fingerprint: 0x7085b396
Variable types: 0 continuous, 625 integer (625 binary)
Coefficient statistics:
  Matrix range     [1e+00, 4e+02]
  Objective range  [0e+00, 0e+00]
  Bounds range     [1e+00, 1e+00]
  RHS range        [1e+00, 1e+03]
Found heuristic solution: objective 0.0000000

Explored 0 nodes (0 simplex iterations) in 0.00 seconds (0.00 work units)
Thread count was 1 (of 12 available processors)

Solution count 1: 0 

Optimal solution found (tolerance 1.00e-04)
Best objective 0.000000000000e+00, best bound 0.000000000000e+00, gap 0.0000%

Gurobi 12.0.1 (linux64, C++) logging started Wed Mar 19 22:54:02 2025

Set parameter WLSAccessID
Set parameter WLSSecret
Set parameter LicenseID to value 2623509
Set parameter LogFile to value "gurobi_improved.log"
Academic license 2623509 - for non-commercial use only - registered to ky___@gmail.com
Set parameter OutputFlag to value 1
Gurobi Optimizer version 12.0.1 build v12.0.1rc0 (linux64 - "Ubuntu 20.04.6 LTS")

CPU model: AMD Ryzen 5 PRO 5675U with Radeon Graphics, instruction set [SSE2|AVX|AVX2]
Thread count: 6 physical cores, 12 logical processors, using up to 12 threads

Academic license 2623509 - for non-commercial use only - registered to ky___@gmail.com
Optimize a model with 100 rows, 625 columns and 2025 nonzeros
Model fingerprint: 0x7085b396
Variable types: 0 continuous, 625 integer (625 binary)
Coefficient statistics:
  Matrix range     [1e+00, 4e+02]
  Objective range  [0e+00, 0e+00]
  Bounds range     [1e+00, 1e+00]
  RHS range        [1e+00, 1e+03]
Found heuristic solution: objective 0.0000000

Explored 0 nodes (0 simplex iterations) in 0.00 seconds (0.00 work units)
Thread count was 1 (of 12 available processors)

Solution count 1: 0 

Optimal solution found (tolerance 1.00e-04)
Best objective 0.000000000000e+00, best bound 0.000000000000e+00, gap 0.0000%

Gurobi 12.0.1 (linux64, C++) logging started Wed Mar 19 22:54:02 2025

Set parameter WLSAccessID
Set parameter WLSSecret
Set parameter LicenseID to value 2623509
Set parameter LogFile to value "gurobi_improved.log"
Academic license 2623509 - for non-commercial use only - registered to ky___@gmail.com
Set parameter OutputFlag to value 1
Gurobi Optimizer version 12.0.1 build v12.0.1rc0 (linux64 - "Ubuntu 20.04.6 LTS")

CPU model: AMD Ryzen 5 PRO 5675U with Radeon Graphics, instruction set [SSE2|AVX|AVX2]
Thread count: 6 physical cores, 12 logical processors, using up to 12 threads

Academic license 2623509 - for non-commercial use only - registered to ky___@gmail.com
Optimize a model with 100 rows, 625 columns and 2025 nonzeros
Model fingerprint: 0x7085b396
Variable types: 0 continuous, 625 integer (625 binary)
Coefficient statistics:
  Matrix range     [1e+00, 4e+02]
  Objective range  [0e+00, 0e+00]
  Bounds range     [1e+00, 1e+00]
  RHS range        [1e+00, 1e+03]
Found heuristic solution: objective 0.0000000

Explored 0 nodes (0 simplex iterations) in 0.00 seconds (0.00 work units)
Thread count was 1 (of 12 available processors)

Solution count 1: 0 

Optimal solution found (tolerance 1.00e-04)
Best objective 0.000000000000e+00, best bound 0.000000000000e+00, gap 0.0000%

Gurobi 12.0.1 (linux64, C++) logging started Wed Mar 19 22:54:02 2025

Set parameter WLSAccessID
Set parameter WLSSecret
Set parameter LicenseID to value 2623509
Set parameter LogFile to value "gurobi_improved.log"
Academic license 2623509 - for non-commercial use only - registered to ky___@gmail.com
Set parameter OutputFlag to value 1
Gurobi Optimizer version 12.0.1 build v12.0.1rc0 (linux64 - "Ubuntu 20.04.6 LTS")

CPU model: AMD Ryzen 5 PRO 5675U with Radeon Graphics, instruction set [SSE2|AVX|AVX2]
Thread count: 6 physical cores, 12 logical processors, using up to 12 threads

Academic license 2623509 - for non-commercial use only - registered to ky___@gmail.com
Optimize a model with 100 rows, 625 columns and 2025 nonzeros
Model fingerprint: 0x7085b396
Variable types: 0 continuous, 625 integer (625 binary)
Coefficient statistics:
  Matrix range     [1e+00, 4e+02]
  Objective range  [0e+00, 0e+00]
  Bounds range     [1e+00, 1e+00]
  RHS range        [1e+00, 1e+03]
Found heuristic solution: objective 0.0000000

Explored 0 nodes (0 simplex iterations) in 0.00 seconds (0.00 work units)
Thread count was 1 (of 12 available processors)

Solution count 1: 0 

Optimal solution found (tolerance 1.00e-04)
Best objective 0.000000000000e+00, best bound 0.000000000000e+00, gap 0.0000%

Gurobi 12.0.1 (linux64, C++) logging started Wed Mar 19 22:54:02 2025

Set parameter WLSAccessID
Set parameter WLSSecret
Set parameter LicenseID to value 2623509
Set parameter LogFile to value "gurobi_improved.log"
Academic license 2623509 - for non-commercial use only - registered to ky___@gmail.com
Set parameter OutputFlag to value 1
Gurobi Optimizer version 12.0.1 build v12.0.1rc0 (linux64 - "Ubuntu 20.04.6 LTS")

CPU model: AMD Ryzen 5 PRO 5675U with Radeon Graphics, instruction set [SSE2|AVX|AVX2]
Thread count: 6 physical cores, 12 logical processors, using up to 12 threads

Academic license 2623509 - for non-commercial use only - registered to ky___@gmail.com
Optimize a model with 100 rows, 625 columns and 2025 nonzeros
Model fingerprint: 0x7085b396
Variable types: 0 continuous, 625 integer (625 binary)
Coefficient statistics:
  Matrix range     [1e+00, 4e+02]
  Objective range  [0e+00, 0e+00]
  Bounds range     [1e+00, 1e+00]
  RHS range        [1e+00, 1e+03]
Found heuristic solution: objective 0.0000000

Explored 0 nodes (0 simplex iterations) in 0.00 seconds (0.00 work units)
Thread count was 1 (of 12 available processors)

Solution count 1: 0 

Optimal solution found (tolerance 1.00e-04)
Best objective 0.000000000000e+00, best bound 0.000000000000e+00, gap 0.0000%

Gurobi 12.0.1 (linux64, C++) logging started Wed Mar 19 22:54:02 2025

Set parameter WLSAccessID
Set parameter WLSSecret
Set parameter LicenseID to value 2623509
Set parameter LogFile to value "gurobi_improved.log"
Academic license 2623509 - for non-commercial use only - registered to ky___@gmail.com
Set parameter OutputFlag to value 1
Gurobi Optimizer version 12.0.1 build v12.0.1rc0 (linux64 - "Ubuntu 20.04.6 LTS")

CPU model: AMD Ryzen 5 PRO 5675U with Radeon Graphics, instruction set [SSE2|AVX|AVX2]
Thread count: 6 physical cores, 12 logical processors, using up to 12 threads

Academic license 2623509 - for non-commercial use only - registered to ky___@gmail.com
Optimize a model with 100 rows, 625 columns and 2025 nonzeros
Model fingerprint: 0x7085b396
Variable types: 0 continuous, 625 integer (625 binary)
Coefficient statistics:
  Matrix range     [1e+00, 4e+02]
  Objective range  [0e+00, 0e+00]
  Bounds range     [1e+00, 1e+00]
  RHS range        [1e+00, 1e+03]
Found heuristic solution: objective 0.0000000

Explored 0 nodes (0 simplex iterations) in 0.00 seconds (0.00 work units)
Thread count was 1 (of 12 available processors)

Solution count 1: 0 

Optimal solution found (tolerance 1.00e-04)
Best objective 0.000000000000e+00, best bound 0.000000000000e+00, gap 0.0000%

Gurobi 12.0.1 (linux64, C++) logging started Wed Mar 19 22:54:02 2025

Set parameter WLSAccessID
Set parameter WLSSecret
Set parameter LicenseID to value 2623509
Set parameter LogFile to value "gurobi_improved.log"
Academic license 2623509 - for non-commercial use only - registered to ky___@gmail.com
Set parameter OutputFlag to value 1
Gurobi Optimizer version 12.0.1 build v12.0.1rc0 (linux64 - "Ubuntu 20.04.6 LTS")

CPU model: AMD Ryzen 5 PRO 5675U with Radeon Graphics, instruction set [SSE2|AVX|AVX2]
Thread count: 6 physical cores, 12 logical processors, using up to 12 threads

Academic license 2623509 - for non-commercial use only - registered to ky___@gmail.com
Optimize a model with 100 rows, 625 columns and 2025 nonzeros
Model fingerprint: 0x7085b396
Variable types: 0 continuous, 625 integer (625 binary)
Coefficient statistics:
  Matrix range     [1e+00, 4e+02]
  Objective range  [0e+00, 0e+00]
  Bounds range     [1e+00, 1e+00]
  RHS range        [1e+00, 1e+03]
Found heuristic solution: objective 0.0000000

Explored 0 nodes (0 simplex iterations) in 0.00 seconds (0.00 work units)
Thread count was 1 (of 12 available processors)

Solution count 1: 0 

Optimal solution found (tolerance 1.00e-04)
Best objective 0.000000000000e+00, best bound 0.000000000000e+00, gap 0.0000%

Gurobi 12.0.1 (linux64, C++) logging started Wed Mar 19 22:54:02 2025

Set parameter WLSAccessID
Set parameter WLSSecret
Set parameter LicenseID to value 2623509
Set parameter LogFile to value "gurobi_improved.log"
Academic license 2623509 - for non-commercial use only - registered to ky___@gmail.com
Set parameter OutputFlag to value 1
Gurobi Optimizer version 12.0.1 build v12.0.1rc0 (linux64 - "Ubuntu 20.04.6 LTS")

CPU model: AMD Ryzen 5 PRO 5675U with Radeon Graphics, instruction set [SSE2|AVX|AVX2]
Thread count: 6 physical cores, 12 logical processors, using up to 12 threads

Academic license 2623509 - for non-commercial use only - registered to ky___@gmail.com
Optimize a model with 100 rows, 625 columns and 2025 nonzeros
Model fingerprint: 0x7085b396
Variable types: 0 continuous, 625 integer (625 binary)
Coefficient statistics:
  Matrix range     [1e+00, 4e+02]
  Objective range  [0e+00, 0e+00]
  Bounds range     [1e+00, 1e+00]
  RHS range        [1e+00, 1e+03]
Found heuristic solution: objective 0.0000000

Explored 0 nodes (0 simplex iterations) in 0.00 seconds (0.00 work units)
Thread count was 1 (of 12 available processors)

Solution count 1: 0 

Optimal solution found (tolerance 1.00e-04)
Best objective 0.000000000000e+00, best bound 0.000000000000e+00, gap 0.0000%
